20
5
397754
0
0
44 55 45 46 53
1
0
45 59 46 40 49
2
0
49 59 47 41 49
3
0
50 57 52 41 49
4
0
47 57 50 43 54
5
0
47 66 49 42 48
6
0
53 57 50 46 49
7
0
45 58 52 43 49
8
0
50 59 49 44 48
9
0
52 62 48 40 50
10
0
47 62 48 41 48
11
0
47 58 51 44 53
12
0
46 63 49 42 53
13
0
51 61 49 41 50
14
0
47 60 48 42 50
15
0
48 63 49 37 51
16
0
50 57 46 43 56
17
0
48 57 46 43 49
18
0
48 58 48 42 48
19
0
46 61 46 46 48
